SPARKNaCl/why3-z3/sparknacl-secretbox.adb_167_53_range_check_1.smt2
;; produced by z3_gnatprove.drv ;;
(set-info :smt-lib-version 2.5)
(set-info :source |VC generated by SPARK 2014|)
(set-info :category industrial)
(set-info :status unknown)
;;; generated by SMT-LIB2 driver
;;; SMT-LIB2 driver: bit-vectors, common part
;;; SMT-LIB2: integer arithmetic
;; "length"
(define-fun length ((x Int) (y Int)) Int
  (ite (<= x y) (+ (- y x) 1) 0))

(declare-sort tinteger_32B 0)

;; "tinteger_32B'int"
(declare-fun tinteger_32Bqtint (tinteger_32B) Int)

;; "tinteger_32B'axiom"
(assert
  (forall ((i tinteger_32B))
    (and
      (<= (- 2147483648) (tinteger_32Bqtint i))
      (<= (tinteger_32Bqtint i) 2147483647))))

;; "in_range"
(define-fun in_range ((x Int)) Bool
  (and (<= (- 2147483648) x) (<= x 2147483647)))

;; "to_rep"
(define-fun to_rep ((x tinteger_32B)) Int
  (tinteger_32Bqtint x))

;; "of_rep"
(declare-fun of_rep (Int) tinteger_32B)

;; "inversion_axiom"
(assert
  (forall ((x tinteger_32B))
    (! (= (of_rep (to_rep x)) x) :pattern ((to_rep x)) )))

;; "range_axiom"
(assert
  (forall ((x tinteger_32B))
    (! (in_range (to_rep x)) :pattern ((to_rep x)) )))

;; "coerce_axiom"
(assert
  (forall ((x Int))
    (! (=> (in_range x) (= (to_rep (of_rep x)) x)) :pattern ((to_rep
                                                               (of_rep x))) )))

;; "in_range"
(define-fun in_range1 ((x Int)) Bool
  (and (<= 0 x) (<= x 2147483647)))

(declare-sort byte 0)

;; "to_rep"
(declare-fun to_rep1 (byte) (_ BitVec 8))

;; "of_rep"
(declare-fun of_rep1 ((_ BitVec 8)) byte)

;; "inversion_axiom"
(assert
  (forall ((x byte)) (! (= (of_rep1 (to_rep1 x)) x) :pattern ((to_rep1 x)) )))

;; "range_axiom"
(assert true)

;; "coerce_axiom"
(assert
  (forall ((x (_ BitVec 8)))
    (! (= (to_rep1 (of_rep1 x)) x) :pattern ((to_rep1 (of_rep1 x))) )))

(declare-sort map1 0)

;; "has_bounds"
(declare-fun has_bounds (map1
  Int
  Int) Bool)

;; "get"
(declare-fun get (map1
  Int) byte)

;; "concat"
(declare-fun concat1 (map1
  Int
  Int
  map1
  Int
  Int
  Int) map1)

;; "concat_def"
(assert
  (forall ((a map1) (b map1) (a_first Int) (a_last Int) (b_first Int) (b_last Int) (new_last Int))
    (! (and
         (=>
           (<= a_first a_last)
           (=>
             (<= a_last new_last)
             (has_bounds
               (concat1 a a_first a_last b b_first b_last new_last)
               a_first
               new_last)))
         (forall ((i Int))
           (! (and
                (=>
                  (and (<= a_first i) (<= i a_last))
                  (= (get
                       (concat1 a a_first a_last b b_first b_last new_last)
                       i) (get a i)))
                (=>
                  (and (< a_last i) (<= i new_last))
                  (= (get
                       (concat1 a a_first a_last b b_first b_last new_last)
                       i) (get b (+ (- i a_last) (- b_first 1)))))) :pattern (
           (get
             (concat1 a a_first a_last b b_first b_last new_last)
             i)) ))) :pattern ((concat1
                                 a
                                 a_first
                                 a_last
                                 b
                                 b_first
                                 b_last
                                 new_last)) )))

(declare-datatypes ()
  ((t (tqtmk (rec__first tinteger_32B)(rec__last tinteger_32B)))))

;; "mk"
(declare-fun mk (Int
  Int) t)

;; "mk_def"
(assert
  (forall ((f Int) (l Int))
    (! (=>
         (in_range f)
         (=>
           (in_range l)
           (and
             (= (to_rep (rec__first (mk f l))) f)
             (= (to_rep (rec__last (mk f l))) l)))) :pattern ((mk f l)) )))

;; "dynamic_property"
(define-fun dynamic_property ((range_first Int) (range_last Int) (low Int) (high Int)) Bool
  (and
    (in_range low)
    (and
      (in_range high)
      (=> (<= low high) (and (in_range1 low) (in_range1 high))))))

(declare-datatypes ()
  ((us_t (us_tqtmk (elts map1)(rt t)))))

;; "to_array"
(define-fun to_array ((a us_t)) map1
  (elts a))

;; "of_array"
(define-fun of_array ((a map1) (f Int) (l Int)) us_t
  (us_tqtmk a (mk f l)))

;; "first"
(define-fun first ((a us_t)) Int
  (to_rep (rec__first (rt a))))

;; "last"
(define-fun last ((a us_t)) Int
  (to_rep (rec__last (rt a))))

;; "length"
(define-fun length1 ((a us_t)) Int
  (ite (<= (first a) (last a)) (+ (- (last a) (first a)) 1) 0))

;; "well_formed"
(define-fun well_formed ((a us_t)) Bool
  (has_bounds
    (elts a)
    (to_rep (rec__first (rt a)))
    (to_rep (rec__last (rt a)))))

(declare-const c us_t)

(declare-const aad us_t)

;; "dynamic_invariant"
(define-fun dynamic_invariant ((temp___expr_254 us_t) (temp___is_init_250 Bool) (temp___skip_constant_251 Bool) (temp___do_toplevel_252 Bool) (temp___do_typ_inv_253 Bool)) Bool
  (and
    (=>
      (not (= temp___skip_constant_251 true))
      (dynamic_property
        0
        2147483647
        (first temp___expr_254)
        (last temp___expr_254)))
    (well_formed temp___expr_254)))

;; "pad16"
(declare-fun pad16 (Int) us_t)

;; "pad16__function_guard"
(declare-fun pad16__function_guard (us_t
  Int) Bool)

(declare-const padded_aad us_t)

;; "pad16__post_axiom"
(assert
  (forall ((param__len Int))
    (! (=>
         (in_range1 param__len)
         (let ((result (pad16 param__len)))
           (=>
             (pad16__function_guard result param__len)
             (and
               (and
                 (< (length1 result) 16)
                 (=> (< 0 (length1 result)) (= (first result) 0)))
               (dynamic_invariant result true false true true))))) :pattern (
    (pad16
      param__len)) )))

;; "Assume"
(assert (dynamic_invariant c true false true true))

;; "Assume"
(assert (dynamic_invariant aad true false true true))

;; "Assume"
(assert
  (and
    (and
      (and (and (= (first aad) 0) (= (first c) 0)) (< (last aad) 2147483647))
      (< (last c) 2147483647))
    (<= (+ (+ (length1 c) (length1 aad)) 45) 2147483647)))

(declare-const ada___sparknacl__secretbox__gen_auth_msg__padded_aad__assume us_t)

(declare-const o Int)

;; "H"
(assert (= o (length1 aad)))

(declare-const lengthqtresultqtunused Int)

;; "H"
(assert (= lengthqtresultqtunused o))

;; "Ensures"
(assert (in_range o))

(declare-const range_check_qtresultqtunused Int)

;; "H"
(assert (= range_check_qtresultqtunused o))

(declare-const temp___1076 us_t)

;; "H"
(assert (= temp___1076 (pad16 o)))

;; "H"
(assert (pad16__function_guard temp___1076 o))

;; "H"
(assert (dynamic_invariant temp___1076 true false true true))

;; "H"
(assert (< (length1 temp___1076) 16))

;; "H"
(assert (=> (< 0 (length1 temp___1076)) (= (first temp___1076) 0)))

(declare-const pad16qtresultqtunused us_t)

;; "H"
(assert (= pad16qtresultqtunused temp___1076))

(declare-const o1 Int)

;; "H"
(assert (= o1 (length1 aad)))

(declare-const lengthqtresultqtunused1 Int)

;; "H"
(assert (= lengthqtresultqtunused1 o1))

(declare-const infix_eqqtresultqtunused Bool)

;; "H"
(assert (= infix_eqqtresultqtunused (ite (= o1 0) true false)))

(declare-const o2 Int)

(declare-const lastqtresultqtunused Int)

(declare-const o3 Int)

(declare-const firstqtresultqtunused Int)

(declare-const o4 Int)

(declare-const lengthqtresultqtunused2 Int)

(declare-const o5 Int)

(declare-const lastqtresultqtunused1 Int)

(declare-const o6 Int)

(declare-const firstqtresultqtunused1 Int)

(declare-const o7 Int)

(declare-const lengthqtresultqtunused3 Int)

(declare-const o8 Int)

(declare-const infix_plqtresultqtunused Int)

(declare-const o9 Int)

(declare-const firstqtresultqtunused2 Int)

(declare-const o10 Int)

(declare-const infix_plqtresultqtunused1 Int)

(declare-const o11 Int)

(declare-const infix_mnqtresultqtunused Int)

(declare-const range_check_qtresultqtunused1 Int)

(declare-const o12 Int)

(declare-const firstqtresultqtunused3 Int)

(declare-const o13 Int)

(declare-const lastqtresultqtunused2 Int)

(declare-const o14 Int)

(declare-const firstqtresultqtunused4 Int)

(declare-const o15 Int)

(declare-const lengthqtresultqtunused4 Int)

(declare-const o16 Int)

(declare-const infix_plqtresultqtunused2 Int)

(declare-const o17 Int)

(declare-const lastqtresultqtunused3 Int)

(declare-const o18 Int)

(declare-const firstqtresultqtunused5 Int)

(declare-const o19 map1)

(declare-const to_arrayqtresultqtunused map1)

(declare-const o20 Int)

(declare-const lastqtresultqtunused4 Int)

(declare-const o21 Int)

(declare-const firstqtresultqtunused6 Int)

(declare-const o22 map1)

(declare-const to_arrayqtresultqtunused1 map1)

(declare-const o23 map1)

(declare-const concatqtresultqtunused map1)

(declare-const of_arrayqtresultqtunused us_t)

(declare-const o24 Int)

(declare-const lastqtresultqtunused5 Int)

(declare-const o25 Int)

(declare-const firstqtresultqtunused7 Int)

(declare-const o26 map1)

(declare-const to_arrayqtresultqtunused2 map1)

(declare-const of_arrayqtresultqtunused1 us_t)

;; "H"
(assert
  (ite (= o1 0)
    (and
      (= o24 (last temp___1076))
      (and
        (= lastqtresultqtunused5 o24)
        (and
          (= o25 (first temp___1076))
          (and
            (= firstqtresultqtunused7 o25)
            (and
              (= o26 (to_array temp___1076))
              (and
                (= to_arrayqtresultqtunused2 o26)
                (and
                  (= ada___sparknacl__secretbox__gen_auth_msg__padded_aad__assume 
                  (pad16
                    o))
                  (= of_arrayqtresultqtunused1 ada___sparknacl__secretbox__gen_auth_msg__padded_aad__assume))))))))
    (and
      (= o2 (last temp___1076))
      (and
        (= lastqtresultqtunused o2)
        (and
          (= o3 (first temp___1076))
          (and
            (= firstqtresultqtunused o3)
            (and
              (= o4 (length o3 o2))
              (and
                (= lengthqtresultqtunused2 o4)
                (and
                  (= o5 (last aad))
                  (and
                    (= lastqtresultqtunused1 o5)
                    (and
                      (= o6 (first aad))
                      (and
                        (= firstqtresultqtunused1 o6)
                        (and
                          (= o7 (length o6 o5))
                          (and
                            (= lengthqtresultqtunused3 o7)
                            (and
                              (= o8 (+ o7 o4))
                              (and
                                (= infix_plqtresultqtunused o8)
                                (and
                                  (= o9 (first aad))
                                  (and
                                    (= firstqtresultqtunused2 o9)
                                    (and
                                      (= o10 (+ o9 o8))
                                      (and
                                        (= infix_plqtresultqtunused1 
                                        o10)
                                        (and
                                          (= o11 (- o10 1))
                                          (and
                                            (= infix_mnqtresultqtunused 
                                            o11)
                                            (and
                                              (in_range1 o11)
                                              (and
                                                (= range_check_qtresultqtunused1 
                                                o11)
                                                (and
                                                  (= o12 (first aad))
                                                  (and
                                                    (= firstqtresultqtunused3 
                                                    o12)
                                                    (and
                                                      (= o13 (last
                                                               temp___1076))
                                                      (and
                                                        (= lastqtresultqtunused2 
                                                        o13)
                                                        (and
                                                          (= o14 (first
                                                                   temp___1076))
                                                          (and
                                                            (= firstqtresultqtunused4 
                                                            o14)
                                                            (and
                                                              (= o15 
                                                              (length
                                                                o14
                                                                o13))
                                                              (and
                                                                (= lengthqtresultqtunused4 
                                                                o15)
                                                                (and
                                                                  (= 
                                                                  o16 (+ 2147483647 
                                                                  o15))
                                                                  (and
                                                                    (= 
                                                                    infix_plqtresultqtunused2 
                                                                    o16)
                                                                    (and
                                                                    (= 
                                                                    o17 
                                                                    (last
                                                                    temp___1076))
                                                                    (and
                                                                    (= 
                                                                    lastqtresultqtunused3 
                                                                    o17)
                                                                    (and
                                                                    (= 
                                                                    o18 
                                                                    (first
                                                                    temp___1076))
                                                                    (and
                                                                    (= 
                                                                    firstqtresultqtunused5 
                                                                    o18)
                                                                    (and
                                                                    (= 
                                                                    o19 
                                                                    (to_array
                                                                    temp___1076))
                                                                    (and
                                                                    (= 
                                                                    to_arrayqtresultqtunused 
                                                                    o19)
                                                                    (and
                                                                    (= 
                                                                    o20 
                                                                    (last
                                                                    aad))
                                                                    (and
                                                                    (= 
                                                                    lastqtresultqtunused4 
                                                                    o20)
                                                                    (and
                                                                    (= 
                                                                    o21 
                                                                    (first
                                                                    aad))
                                                                    (and
                                                                    (= 
                                                                    firstqtresultqtunused6 
                                                                    o21)
                                                                    (and
                                                                    (= 
                                                                    o22 
                                                                    (to_array
                                                                    aad))
                                                                    (and
                                                                    (= 
                                                                    to_arrayqtresultqtunused1 
                                                                    o22)
                                                                    (and
                                                                    (= 
                                                                    o23 
                                                                    (concat1
                                                                    o22
                                                                    o21
                                                                    o20
                                                                    o19
                                                                    o18
                                                                    o17
                                                                    o16))
                                                                    (and
                                                                    (= 
                                                                    concatqtresultqtunused 
                                                                    o23)
                                                                    (and
                                                                    (= 
                                                                    ada___sparknacl__secretbox__gen_auth_msg__padded_aad__assume 
                                                                    (of_array
                                                                    o23
                                                                    o12
                                                                    o11))
                                                                    (= 
                                                                    of_arrayqtresultqtunused 
                                                                    ada___sparknacl__secretbox__gen_auth_msg__padded_aad__assume))))))))))))))))))))))))))))))))))))))))))))))))))

;; "Assume"
(assert
  (= ada___sparknacl__secretbox__gen_auth_msg__padded_aad__assume padded_aad))

;; "Assume"
(assert (dynamic_invariant padded_aad true false true true))

;; "Assert"
(assert (<= (length1 padded_aad) (+ (length1 aad) 15)))

;; "o"
(define-fun o27 () Int
  (length1 c))

;; "length'result'unused"
(define-fun lengthqtresultqtunused5 () Int
  o27)

;; Goal "def'vc"
;; File "sparknacl-secretbox.adb", line 107, characters 0-0
(assert
  (not (<= (- 2147483648) o27)))

(check-sat)
